letting n =  10
letting blocks =  [[1, 7], [2, 7], [2, 9], [2, 10], [3, 1], [3, 4], [3, 8], [3, 9], [4, 1], [4, 7], [5, 1], [5, 2], [5, 3], [5, 4], [5, 8], [5, 10], [6, 7], [7, 1], [7, 2], [7, 10], [8, 4], [8, 6], [9, 8], [10, 1], [10, 5], [10, 6]]
